width = 29;
ICs_number = 24;
IC_widths = [3, 3, 3, 3, 3, 3, 3, 3, 3, 3, 3, 3, 4, 4, 4, 4, 4, 4, 4, 4, 4, 5, 5, 5];
IC_heights = [3, 4, 5, 6, 7, 8, 9, 10, 11, 15, 18, 20, 3, 4, 5, 6, 7, 9, 15, 18, 20, 4, 8, 17];